DATASET = "thpack5";
INSTANCE = "062";

WIDTH = 233;
HEIGHT = 220;
LENGTH = 587;

NO_OF_SHAPES = 12;
size = [|
  70,63,50 |
  100,53,34 |
  93,78,45 |
  100,55,48 |
  98,73,50 |
  69,45,43 |
  43,42,36 |
  104,92,63 |
  93,36,26 |
  50,45,41 |
  119,67,50 |
  82,49,30 |
|];

verticality = [|
  1,1,1 |
  0,1,1 |
  0,1,1 |
  0,1,1 |
  1,1,1 |
  1,1,1 |
  1,1,1 |
  1,1,1 |
  0,1,1 |
  1,1,1 |
  0,1,1 |
  0,1,1 |
|];

box_count = [
  14,
  9,
  7,
  11,
  9,
  11,
  7,
  11,
  11,
  17,
  9,
  15,
];
